SCIP Status        : solving was interrupted [time limit reached]
Total Time         :    3600.00
  solving          :    3600.00
  presolving       :       0.53 (included in solving)
  reading          :       0.00
  copying          :       2.52 (52 #copies) (minimal 0.00, maximal 0.11, average 0.05)
Original Problem   :
  Problem name     : bbbenchmark/g05_100.7.cut
  Variables        : 101 (100 binary, 0 integer, 0 implicit integer, 1 continuous)
  Constraints      : 1 initial, 1 maximal
  Objective        : minimize, 1 non-zeros (abs.min = 1, abs.max = 1)
Presolved Problem  :
  Problem name     : t_bbbenchmark/g05_100.7.cut
  Variables        : 1952 (100 binary, 0 integer, 1839 implicit integer, 13 continuous)
  Constraints      : 1876 initial, 10276 maximal
  Objective        : minimize, 1 non-zeros (abs.min = 1, abs.max = 1)
  Nonzeros         : 8801 constraint, 202 clique table
Presolvers         :   ExecTime  SetupTime  Calls  FixedVars   AggrVars   ChgTypes  ChgBounds   AddHoles    DelCons    AddCons   ChgSides   ChgCoefs
  boundshift       :       0.00       0.00      0          0          0          0          0          0          0          0          0          0
  convertinttobin  :       0.00       0.00      0          0          0          0          0          0          0          0          0          0
  domcol           :       0.00       0.00      1          0          0          0          0          0          0          0          0          0
  dualagg          :       0.00       0.00      0          0          0          0          0          0          0          0          0          0
  dualcomp         :       0.00       0.00      1          0          0          0          0          0          0          0          0          0
  dualinfer        :       0.00       0.00      0          0          0          0          0          0          0          0          0          0
  dualsparsify     :       0.00       0.00      1          0          0          0          0          0          0          0          0          0
  gateextraction   :       0.00       0.00      0          0          0          0          0          0          0          0          0          0
  implics          :       0.00       0.00      2          0          0          0          0          0          0          0          0          0
  inttobinary      :       0.00       0.00      0          0          0          0          0          0          0          0          0          0
  qpkktref         :       0.00       0.00      0          0          0          0          0          0          0          0          0          0
  redvub           :       0.00       0.00      0          0          0          0          0          0          0          0          0          0
  sparsify         :       0.00       0.00      1          0          0          0          0          0          0          0          0          0
  stuffing         :       0.00       0.00      0          0          0          0          0          0          0          0          0          0
  trivial          :       0.00       0.00      4          0          0          0          0          0          0          0          0          0
  tworowbnd        :       0.00       0.00      0          0          0          0          0          0          0          0          0          0
  dualfix          :       0.00       0.00      4          0          0          0          0          0          0          0          0          0
  genvbounds       :       0.00       0.00      0          0          0          0          0          0          0          0          0          0
  probing          :       0.32       0.00      1          0          0          0          0          0          0          0          0          0
  pseudoobj        :       0.00       0.00      1          0          0          0          1          0          0          0          0          0
  symmetry         :       0.00       0.00      0          0          0          0          0          0          0          0          0          0
  vbounds          :       0.00       0.00      1          0          0          0          0          0          0          0          0          0
  varbound         :       0.00       0.00      2          0          0          0          0          0          0          0          0          0
  and              :       0.01       0.01      2          0          0          0          0          0          0          0          0          0
  linear           :       0.00       0.00      2          0          0          0          0          0          0          0          0          0
  logicor          :       0.00       0.00      0          0          0          0          0          0          0          0          0          0
  bounddisjunction :       0.00       0.00      0          0          0          0          0          0          0          0          0          0
  nonlinear        :       0.20       0.01      5          0          0          0          1          0          0       1875          0          0
  benders          :       0.00       0.00      0          0          0          0          0          0          0          0          0          0
  components       :       0.00       0.00      1          0          0          0          0          0          0          0          0          0
  root node        :          -          -      -          0          -          -         14          -          -          -          -          -
Constraints        :     Number  MaxNumber  #Separate #Propagate    #EnfoLP    #EnfoRelax  #EnfoPS    #Check   #ResProp    Cutoffs    DomReds       Cuts    Applied      Conss   Children
  benderslp        :          0          0          0          0      88401          0          0      10379          0          0          0          0          0          0          0
  integral         :          0          0          0          0      88401          0          0      10379          0          0       2884          0          0       1989     173908
  varbound         :         12         12         57     612582          0          0          0         23          0          0      22559          0          0          0          0
  and              :       1839       1839     102478     688422          1          0          0         23     440312          8    2214511       2571       2498          0          0
  linear           :         25+        76         57     688445          1          0          0         21        649          9     258901          0          0          0          0
  logicor          :          0+      8090          0     132341          0          0          0          0        426        591         72          0          0          0          0
  bounddisjunction :          0+       360          0      48848          0          0          0          0          0         36          4          0          0          0          0
  benders          :          0          0          0          0          1          0          0         22          0          0          0          0          0          0          0
  countsols        :          0          0          0          0          1          0          0         22          0          0          0          0          0          0          0
  components       :          0          0          0          0          0          0          0          0          0          0          0          0          0          0          0
Constraint Timings :  TotalTime  SetupTime   Separate  Propagate     EnfoLP     EnfoPS     EnfoRelax   Check    ResProp    SB-Prop
  benderslp        :       0.13       0.00       0.00       0.00       0.10       0.00       0.00       0.03       0.00       0.00
  integral         :      70.89       0.00       0.00       0.00      70.86       0.00       0.00       0.03       0.00       0.00
  varbound         :       0.60       0.00       0.00       0.57       0.00       0.00       0.00       0.00       0.00       0.03
  and              :     124.00       0.01      82.58      40.38       0.00       0.00       0.00       0.00       0.38       0.65
  linear           :       3.89       0.00       0.01       3.82       0.00       0.00       0.00       0.01       0.00       0.05
  logicor          :      10.39       0.00       0.00      10.33       0.00       0.00       0.00       0.00       0.01       0.05
  bounddisjunction :       0.76       0.00       0.00       0.75       0.00       0.00       0.00       0.00       0.00       0.01
  benders          :       0.00       0.00       0.00       0.00       0.00       0.00       0.00       0.00       0.00       0.00
  countsols        :       0.00       0.00       0.00       0.00       0.00       0.00       0.00       0.00       0.00       0.00
  components       :       0.18       0.00       0.00       0.18       0.00       0.00       0.00       0.00       0.00       0.00
Propagators        : #Propagate   #ResProp    Cutoffs    DomReds
  dualfix          :          4          0          0          0
  genvbounds       :          0          0          0          0
  nlobbt           :          0          0          0          0
  obbt             :          0          0          0          0
  probing          :          0          0          0          0
  pseudoobj        :     362595          0          0         15
  redcost          :     205438          0          0     158436
  rootredcost      :         13          0          0          0
  symmetry         :          0          0          0          0
  vbounds          :      89924          0          0          0
Propagator Timings :  TotalTime  SetupTime   Presolve  Propagate    ResProp    SB-Prop
  dualfix          :       0.00       0.00       0.00       0.00       0.00       0.00
  genvbounds       :       0.55       0.00       0.00       0.55       0.00       0.00
  nlobbt           :       0.00       0.00       0.00       0.00       0.00       0.00
  obbt             :       0.00       0.00       0.00       0.00       0.00       0.00
  probing          :       0.32       0.00       0.32       0.00       0.00       0.00
  pseudoobj        :       0.65       0.00       0.00       0.65       0.00       0.00
  redcost          :      15.90       0.00       0.00      15.89       0.00       0.01
  rootredcost      :       0.62       0.00       0.00       0.61       0.00       0.01
  symmetry         :       0.33       0.00       0.00       0.33       0.00       0.00
  vbounds          :       0.71       0.00       0.00       0.71       0.00       0.00
Conflict Analysis  :       Time      Calls    Success    DomReds  Conflicts   Literals    Reconvs ReconvLits   Dualrays   Nonzeros   LP Iters   (pool size: [10000,10000])
  propagation      :       0.01        635        547          -        643       62.2          0        0.0          -          -          -
  infeasible LP    :       0.08         21         21          -        920      154.3          0        0.0        111      107.1          0
  bound exceed. LP :      27.67       9389       8115          -     136288       98.6          2       33.0          0        0.0      60336
  strong branching :       0.00          0          0          -          0        0.0          0        0.0          -          -          0
  pseudo solution  :       0.00          0          0          -          0        0.0          0        0.0          -          -          -
  applied globally :       0.77          -          -          0      34257      103.7          -          -        111          -          -
  applied locally  :          -          -          -          0          0        0.0          -          -          0          -          -
Separators         :   ExecTime  SetupTime      Calls  RootCalls    Cutoffs    DomReds  FoundCuts ViaPoolAdd  DirectAdd    Applied ViaPoolApp  DirectApp      Conss
  cut pool         :       6.33          -      25396         84          -          -      38647    1646672          -          -          -          -          -    (maximal pool size:       3012)
  aggregation      :      11.25       0.00       4858         57          0          0         93        395          0        102        102          0          0
  > cmir           :          -          -          -          -          -          -          -        395          0        102        102          0          -
  > flowcover      :          -          -          -          -          -          -          -          0          0          0          0          0          -
  > knapsackcover  :          -          -          -          -          -          -          -          0          0          0          0          0          -
  cgmip            :       0.00       0.00          0          0          0          0          0          0          0          0          0          0          0
  clique           :       0.00       0.00         57         57          0          0          0          0          0          0          0          0          0
  closecuts        :       0.00       0.00          0          0          0          0          0          0          0          0          0          0          0
  convexproj       :       0.00       0.00          0          0          0          0          0          0          0          0          0          0          0
  disjunctive      :       0.00       0.00          0          0          0          0          0          0          0          0          0          0          0
  eccuts           :       0.00       0.00          0          0          0          0          0          0          0          0          0          0          0
  gauge            :       0.00       0.00          0          0          0          0          0          0          0          0          0          0          0
  gomory           :       0.00       0.00          0          0          0          0          0          0          0          0          0          0          0
  > gomorymi       :          -          -          -          -          -          -          -          0          0          0          0          0          -
  > strongcg       :          -          -          -          -          -          -          -          0          0          0          0          0          -
  impliedbounds    :       0.45       0.00       4858         57          0          0          1          0          0          0          0          0          0
  interlattice     :       0.14       0.00         30         30          0          0         30          0         30         30          0         30          0
  interminor       :       0.00       0.00          0          0          0          0          0          0          0          0          0          0          0
  intersub         :       0.00       0.00          0          0          0          0          0          0          0          0          0          0          0
  intobj           :       0.00       0.00          0          0          0          0          0          0          0          0          0          0          0
  mcf              :       0.00       0.00          1          1          0          0          0          0          0          0          0          0          0
  minor            :       0.01       0.00          0          0          0          0          0          0          0          0          0          0          0
  mixing           :       0.01       0.00       4858         57          0          0          0          0          0          0          0          0          0
  oddcycle         :       0.00       0.00          0          0          0          0          0          0          0          0          0          0          0
  rapidlearning    :       0.02       0.00          0          0          0          0          0          0          0          0          0          0          0
  rlt              :       0.00       0.00         10         10          0          0          0          0          0          0          0          0          0
  zerohalf         :      41.88       0.00       4187         20          0          0      38553    1646277          0     184038     184038          0          0
Cutselectors       :   ExecTime  SetupTime      Calls  RootCalls   Selected     Forced   Filtered  RootSelec   RootForc   RootFilt 
  hybrid           :       1.70       0.00      16513         55     186668          0    1462605        234          0          3
Pricers            :   ExecTime  SetupTime      Calls       Vars
  problem variables:       0.00          -          0          0
Branching Rules    :   ExecTime  SetupTime   BranchLP  BranchExt   BranchPS    Cutoffs    DomReds       Cuts      Conss   Children
  allfullstrong    :       0.00       0.00          0          0          0          0          0          0          0          0
  cloud            :       0.00       0.00          0          0          0          0          0          0          0          0
  distribution     :       0.00       0.00          0          0          0          0          0          0          0          0
  fullstrong       :       0.00       0.00          0          0          0          0          0          0          0          0
  inference        :       0.00       0.00          0          0          0          0          0          0          0          0
  leastinf         :       0.00       0.00          0          0          0          0          0          0          0          0
  lookahead        :       0.00       0.00          0          0          0          0          0          0          0          0
  mostinf          :       0.00       0.00          0          0          0          0          0          0          0          0
  multaggr         :       0.00       0.00          0          0          0          0          0          0          0          0
  nodereopt        :       0.00       0.00          0          0          0          0          0          0          0          0
  pscost           :       0.00       0.00          0          0          0          0          0          0          0          0
  random           :       0.00       0.00          0          0          0          0          0          0          0          0
  relpscost        :      70.54       0.00      88400          0          0          0       2884          0       1991     173908
  vanillafullstrong:       0.00       0.00          0          0          0          0          0          0          0          0
Primal Heuristics  :   ExecTime  SetupTime      Calls      Found       Best
  LP solutions     :       0.00          -          -          1          1
  relax solutions  :       0.00          -          -          0          0
  pseudo solutions :       0.00          -          -          0          0
  strong branching :       0.02          -          -          0          0
  actconsdiving    :       0.00       0.00          0          0          0
  adaptivediving   :      14.28       0.00        106          1          1
  alns             :       2.77       0.00         20          3          3
  bound            :       0.00       0.00          0          0          0
  clique           :       0.02       0.00          1          0          0
  coefdiving       :       0.00       0.00          0          0          0
  completesol      :       0.00       0.00          0          0          0
  conflictdiving   :     169.02       0.00       1239          0          0
  crossover        :       4.62       0.00         10          1          1
  dins             :       0.00       0.00          0          0          0
  distributiondivin:      82.47       0.00        355          0          0
  dps              :       0.00       0.00          0          0          0
  dualval          :       0.00       0.00          0          0          0
  farkasdiving     :       0.00       0.00          0          0          0
  feaspump         :       0.11       0.00          1          1          1
  fixandinfer      :       0.00       0.00          0          0          0
  fracdiving       :      63.05       0.00        510          0          0
  gins             :       0.08       0.00          0          0          0
  guideddiving     :      61.84       0.00        477          0          0
  indicator        :       0.08       0.00          0          0          0
  indicatordiving  :       0.00       0.00          0          0          0
  intdiving        :       0.00       0.00          0          0          0
  intshifting      :       0.78       0.00        100          0          0
  linesearchdiving :      61.99       0.00        493          0          0
  localbranching   :       0.00       0.00          0          0          0
  locks            :       0.01       0.00          1          0          0
  lpface           :       0.12       0.00          0          0          0
  mpec             :     383.22       0.00         11          5          5
  multistart       :       0.00       0.00          0          0          0
  mutation         :       0.00       0.00          0          0          0
  nlpdiving        :      84.53       0.00          3          0          0
  objpscostdiving  :      35.94       0.00         36          2          0
  octane           :       0.00       0.00          0          0          0
  ofins            :       0.05       0.00          0          0          0
  oneopt           :       0.10       0.00         17          0          0
  padm             :       0.00       0.00          0          0          0
  proximity        :       0.00       0.00          0          0          0
  pscostdiving     :      60.29       0.00        393          1          1
  randrounding     :       0.59       0.00      10354          0          0
  rens             :       0.00       0.00          0          0          0
  reoptsols        :       0.00       0.00          0          0          0
  repair           :       0.00       0.00          0          0          0
  rins             :       6.59       0.00         21          0          0
  rootsoldiving    :      37.54       0.00         29          0          0
  rounding         :       1.66       0.00       4494          0          0
  shiftandpropagate:       0.00       0.00          0          0          0
  shifting         :      47.86       0.00       9377          2          2
  simplerounding   :       0.08       0.00          0          0          0
  subnlp           :     173.20       0.00          0          0          0
  trivial          :       0.00       0.00          2          2          2
  trivialnegation  :       0.00       0.00          0          0          0
  trustregion      :       0.00       0.00          0          0          0
  trysol           :       0.15       0.00          0          0          0
  twoopt           :       0.00       0.00          0          0          0
  undercover       :       1.22       0.00          1          1          1
  vbounds          :       0.00       0.00          0          0          0
  veclendiving     :      61.29       0.00        537          0          0
  zeroobj          :       0.00       0.00          0          0          0
  zirounding       :       0.47       0.00       1000          0          0
  other solutions  :          -          -          -          0          -
Diving (single)    :      Calls      Nodes   LP Iters Backtracks  Conflicts   MinDepth   MaxDepth   AvgDepth  RoundSols  NLeafSols  MinSolDpt  MaxSolDpt  AvgSolDpt
  actconsdiving    :          0          -          -          -          -          -          -          -          -          -          -          -          -
  coefdiving       :          0          -          -          -          -          -          -          -          -          -          -          -          -
  conflictdiving   :       1239      55214    1679438       1384      49008         52         83       67.5          0          -          -          -          -
  distributiondivin:        355      12287     598667        390       6245         46         67       56.0          0          -          -          -          -
  farkasdiving     :          0          -          -          -          -          -          -          -          -          -          -          -          -
  fracdiving       :        510      42776     594029        270       3464         55        319      106.4          0          -          -          -          -
  guideddiving     :        477      40954     594411        256       5008         55        264      107.5          0          -          -          -          -
  indicatordiving  :          0          -          -          -          -          -          -          -          -          -          -          -          -
  linesearchdiving :        493      18737     594054        499      24428         47         86       59.4          0          -          -          -          -
  pscostdiving     :        393      17428     612461        407       8554         56         82       65.6          0          1         82         82       82.0
  veclendiving     :        537      21961     585059        536      30045         54         83       63.1          0          -          -          -          -
Diving (adaptive)  :      Calls      Nodes   LP Iters Backtracks  Conflicts   MinDepth   MaxDepth   AvgDepth  RoundSols  NLeafSols  MinSolDpt  MaxSolDpt  AvgSolDpt
  actconsdiving    :         13        478      19343         14        122         53         59       56.7          0          -          -          -          -
  coefdiving       :         38       1625      45584         29       1987         54         78       62.3          0          -          -          -          -
  conflictdiving   :          0          -          -          -          -          -          -          -          -          -          -          -          -
  distributiondivin:          0          -          -          -          -          -          -          -          -          -          -          -          -
  farkasdiving     :          0          -          -          -          -          -          -          -          -          -          -          -          -
  fracdiving       :          3        341       4778          3         44         81        202      134.7          0          -          -          -          -
  guideddiving     :          6        468       5788          2         30         69        159      103.5          0          1         95         95       95.0
  indicatordiving  :          0          -          -          -          -          -          -          -          -          -          -          -          -
  linesearchdiving :         21        830      27968         17       1192         48         69       59.1          0          -          -          -          -
  pscostdiving     :          8        373      12427          8        232         60         73       66.6          0          -          -          -          -
  veclendiving     :         17        738      17282         15        956         58         70       64.8          0          -          -          -          -
Neighborhoods      :      Calls  SetupTime  SolveTime SolveNodes       Sols       Best       Exp3  EpsGreedy        UCB TgtFixRate  Opt  Inf Node Stal  Sol  Usr Othr Actv
  rens             :          2       0.12       0.03          1          0          0    0.00000   -1.00000    0.54885      0.550    0    2    0    0    0    0    0    1
  rins             :          1       0.04       0.01          9          0          0    0.00000   -1.00000    0.56079      0.700    0    1    0    0    0    0    0    1
  mutation         :          4       0.48       0.35        181          1          1    0.00000   -1.00000    0.54561      0.672    0    2    0    2    0    0    0    1
  localbranching   :          3       0.25       0.29        394          1          1    0.00000   -1.00000    0.48121      0.812    0    1    0    2    0    0    0    1
  crossover        :          2       0.19       0.09         69          0          0    0.00000   -1.00000    0.47285      0.850    0    1    0    1    0    0    0    1
  proximity        :          1       0.04       0.02         16          0          0    0.00000   -1.00000    0.55379      0.700    0    1    0    0    0    0    0    1
  zeroobjective    :          5       0.25       0.15        184          1          1    0.00000   -1.00000    0.54211      0.879    1    1    0    3    0    0    0    1
  dins             :          2       0.22       0.07         79          0          0    0.00000   -1.00000    0.46985      0.850    0    1    0    1    0    0    0    1
  trustregion      :          0       0.00       0.00          0          0          0    0.00000   -1.00000    1.00000      0.900    0    0    0    0    0    0    0    0
Expressions        :   #IntEval  IntEvalTi   #RevProp  RevPropTi    DomReds    Cutoffs  #Estimate  EstimTime  Branching  #Simplify SimplifyTi Simplified
  pow              :          0       0.00          0       0.00          0          0          0       0.00          0          0       0.00          0
  prod             :       9900       0.01          0       0.00          0          0          0       0.00          0       6789       0.00          0
  sum              :          8       0.00          2       0.00          0          0          0       0.00          0          3       0.04          2
  var              :       6665       0.00          0       0.00          0          0          0       0.00          0      15732       0.02          0
  varidx           :          0       0.00          0       0.00          0          0          0       0.00          0          0       0.00          0
LP                 :       Time      Calls Iterations  Iter/call   Iter/sec  Time-0-It Calls-0-It    ItLimit
  primal LP        :      78.96      10216          0       0.00       0.00      78.88      10216
  dual LP          :    1710.47     156810   11620295      80.31    6793.63       6.19      12113
  lex dual LP      :       0.00          0          0       0.00          -
  barrier LP       :       0.00          0          0       0.00          -       0.00          0
  resolve instable :       0.00          0          0       0.00          -
  diving/probing LP:     545.58      18305    5796002     316.63   10623.56
  strong branching :      27.19       3390     258219      76.17    9496.84          -          -         79
    (at root node) :          -         19       3474     182.84          -
  conflict analysis:      10.34       6190      60336       9.75    5835.20
NLP relaxation     :
  solve time       :      83.19 (16 calls)
  convexity        :  nonconvex (37 linear rows, 0 convex ineq., 0 nonconvex ineq., 1839 nonlinear eq. or two-sided ineq.)
NLP Solvers        :  #Problems  ProblemTi    #Solves  SolveTime      #Iter  Time/Iter      #Okay #TimeLimit #IterLimit #LObjLimit #Interrupt  #NumError #EvalError  #OutOfMem #LicenseEr #OtherTerm   #GlobOpt    #LocOpt  #Feasible #LocInfeas #GlobInfea #Unbounded   #Unknown
  ipopt            :         12       7.61         48     470.53       1737       0.27         46          0          2          0          0          0          0          0          0          0          0         33          0         12          0          0          3
B&B Tree           :
  number of runs   :          1
  nodes            :     126770 (86954 internal, 39816 leaves)
  feasible leaves  :          1
  infeas. leaves   :         28
  objective leaves :      39786
  nodes (total)    :     126770 (86954 internal, 39816 leaves)
  nodes left       :      46902
  max depth        :         73
  max depth (total):         73
  backtracks       :      22649 (17.9%)
  early backtracks :          0 (0.0%)
  nodes exc. ref.  :          0 (0.0%)
  delayed cutoffs  :          6
  repropagations   :         76 (228 domain reductions, 2 cutoffs)
  avg switch length:       5.05
  switching time   :     112.06
Estim. Tree Size   :     254014
Estimation Tree    : 173909 nodes (127007 visited, 86954 internal, 40053 leaves, 46902 open), weight: 0.0000 completed 0.1036
Estimations        :      estim      value      trend resolution     smooth
  wbe              : 2760065119847454          -          -          -          -
  tree-profile     :         -1          -          -          -          -
  gap              :    2138607    0.68555    0.00002         64    2104123
  tree-weight      :     254014    0.00000    0.00000         64     253690
  leaf-frequency   :     638933    0.31536    0.00004         64     646745
  ssg              :   20244533    0.83646   -0.00001         64   20135522
  open-nodes       :     254014 46902.00000   11.96587         64     253690
Root Node          :
  First LP value   : -1.00000000000000e+00
  First LP Iters   :       1752 (10305.88 Iter/sec)
  First LP Time    :       0.17
  Final Dual Bound : -9.50707070707071e-01
  Final Root Iters :       2733
  Root LP Estimate : -4.08769057577328e-01
Solution           :
  Solutions found  :         20 (18 improvements)
  First Solution   : +1.00000000000000e+05   (in run 1, after 0 nodes, 0.00 seconds, depth 0, found by <trivial>)
  Gap First Sol.   :   infinite
  Gap Last Sol.    :      47.37 %
  Primal Bound     : -5.68080808080806e-01   (in run 1, after 89663 nodes, 2694.41 seconds, depth 60, found by <alns>)
  Dual Bound       : -8.28644344342666e-01
  Gap              :      45.87 %
Integrals          :      Total       Avg%
  primal-dual      :  126408.61      35.11
  primal-ref       :          -          - (not evaluated)
  dual-ref         :          -          - (not evaluated)
